(set-info :smt-lib-version 2.6)
(set-logic ALL)
(set-info :source |
Benchmarks used in the followin paper:
Big proof engines as little proof engines: new results on rewrite-based satisfiability procedure
Alessandro Armando, Maria Paola Bonacina, Silvio Ranise, Stephan Schulz. 
PDPAR'05
http://www.ai.dist.unige.it/pdpar05/


|)
(set-info :category "crafted")
(set-info :status unsat)

(declare-sort Element 0)
(declare-fun a_0 () (Seq Element))
(declare-fun a_1 () (Seq Element))
(declare-fun a_10 () (Seq Element))
(declare-fun a_11 () (Seq Element))
(declare-fun a_12 () (Seq Element))
(declare-fun a_13 () (Seq Element))
(declare-fun a_14 () (Seq Element))
(declare-fun a_15 () (Seq Element))
(declare-fun a_16 () (Seq Element))
(declare-fun a_17 () (Seq Element))
(declare-fun a_18 () (Seq Element))
(declare-fun a_19 () (Seq Element))
(declare-fun a_2 () (Seq Element))
(declare-fun a_20 () (Seq Element))
(declare-fun a_21 () (Seq Element))
(declare-fun a_22 () (Seq Element))
(declare-fun a_23 () (Seq Element))
(declare-fun a_24 () (Seq Element))
(declare-fun a_25 () (Seq Element))
(declare-fun a_26 () (Seq Element))
(declare-fun a_27 () (Seq Element))
(declare-fun a_28 () (Seq Element))
(declare-fun a_29 () (Seq Element))
(declare-fun a_3 () (Seq Element))
(declare-fun a_30 () (Seq Element))
(declare-fun a_31 () (Seq Element))
(declare-fun a_32 () (Seq Element))
(declare-fun a_33 () (Seq Element))
(declare-fun a_34 () (Seq Element))
(declare-fun a_35 () (Seq Element))
(declare-fun a_36 () (Seq Element))
(declare-fun a_37 () (Seq Element))
(declare-fun a_38 () (Seq Element))
(declare-fun a_39 () (Seq Element))
(declare-fun a_4 () (Seq Element))
(declare-fun a_40 () (Seq Element))
(declare-fun a_41 () (Seq Element))
(declare-fun a_42 () (Seq Element))
(declare-fun a_43 () (Seq Element))
(declare-fun a_44 () (Seq Element))
(declare-fun a_45 () (Seq Element))
(declare-fun a_46 () (Seq Element))
(declare-fun a_47 () (Seq Element))
(declare-fun a_48 () (Seq Element))
(declare-fun a_49 () (Seq Element))
(declare-fun a_5 () (Seq Element))
(declare-fun a_50 () (Seq Element))
(declare-fun a_51 () (Seq Element))
(declare-fun a_52 () (Seq Element))
(declare-fun a_53 () (Seq Element))
(declare-fun a_54 () (Seq Element))
(declare-fun a_55 () (Seq Element))
(declare-fun a_56 () (Seq Element))
(declare-fun a_57 () (Seq Element))
(declare-fun a_58 () (Seq Element))
(declare-fun a_59 () (Seq Element))
(declare-fun a_6 () (Seq Element))
(declare-fun a_7 () (Seq Element))
(declare-fun a_8 () (Seq Element))
(declare-fun a_9 () (Seq Element))
(declare-fun a1 () (Seq Element))
(declare-fun e1 () Element)
(declare-fun e10 () Element)
(declare-fun e11 () Element)
(declare-fun e12 () Element)
(declare-fun e13 () Element)
(declare-fun e14 () Element)
(declare-fun e15 () Element)
(declare-fun e16 () Element)
(declare-fun e17 () Element)
(declare-fun e18 () Element)
(declare-fun e19 () Element)
(declare-fun e2 () Element)
(declare-fun e20 () Element)
(declare-fun e21 () Element)
(declare-fun e22 () Element)
(declare-fun e23 () Element)
(declare-fun e24 () Element)
(declare-fun e25 () Element)
(declare-fun e26 () Element)
(declare-fun e27 () Element)
(declare-fun e28 () Element)
(declare-fun e29 () Element)
(declare-fun e3 () Element)
(declare-fun e30 () Element)
(declare-fun e4 () Element)
(declare-fun e5 () Element)
(declare-fun e6 () Element)
(declare-fun e7 () Element)
(declare-fun e8 () Element)
(declare-fun e9 () Element)
(declare-fun i1 () Int)
(declare-fun i10 () Int)
(declare-fun i11 () Int)
(declare-fun i12 () Int)
(declare-fun i13 () Int)
(declare-fun i14 () Int)
(declare-fun i15 () Int)
(declare-fun i16 () Int)
(declare-fun i17 () Int)
(declare-fun i18 () Int)
(declare-fun i19 () Int)
(declare-fun i2 () Int)
(declare-fun i20 () Int)
(declare-fun i21 () Int)
(declare-fun i22 () Int)
(declare-fun i23 () Int)
(declare-fun i24 () Int)
(declare-fun i25 () Int)
(declare-fun i26 () Int)
(declare-fun i27 () Int)
(declare-fun i28 () Int)
(declare-fun i29 () Int)
(declare-fun i3 () Int)
(declare-fun i30 () Int)
(declare-fun i4 () Int)
(declare-fun i5 () Int)
(declare-fun i6 () Int)
(declare-fun i7 () Int)
(declare-fun i8 () Int)
(declare-fun i9 () Int)
(assert (= a_0 (seq.update a1 i1 (seq.unit e1))))
(assert (= a_1 (seq.update a_0 i2 (seq.unit e2))))
(assert (= a_10 (seq.update a_9 i11 (seq.unit e11))))
(assert (= a_11 (seq.update a_10 i12 (seq.unit e12))))
(assert (= a_12 (seq.update a_11 i13 (seq.unit e13))))
(assert (= a_13 (seq.update a_12 i14 (seq.unit e14))))
(assert (= a_14 (seq.update a_13 i15 (seq.unit e15))))
(assert (= a_15 (seq.update a_14 i16 (seq.unit e16))))
(assert (= a_16 (seq.update a_15 i17 (seq.unit e17))))
(assert (= a_17 (seq.update a_16 i18 (seq.unit e18))))
(assert (= a_18 (seq.update a_17 i19 (seq.unit e19))))
(assert (= a_19 (seq.update a_18 i20 (seq.unit e20))))
(assert (= a_2 (seq.update a_1 i3 (seq.unit e3))))
(assert (= a_20 (seq.update a_19 i21 (seq.unit e21))))
(assert (= a_21 (seq.update a_20 i22 (seq.unit e22))))
(assert (= a_22 (seq.update a_21 i23 (seq.unit e23))))
(assert (= a_23 (seq.update a_22 i24 (seq.unit e24))))
(assert (= a_24 (seq.update a_23 i25 (seq.unit e25))))
(assert (= a_25 (seq.update a_24 i26 (seq.unit e26))))
(assert (= a_26 (seq.update a_25 i27 (seq.unit e27))))
(assert (= a_27 (seq.update a_26 i28 (seq.unit e28))))
(assert (= a_28 (seq.update a_27 i29 (seq.unit e29))))
(assert (= a_29 (seq.update a_28 i30 (seq.unit e30))))
(assert (= a_3 (seq.update a_2 i4 (seq.unit e4))))
(assert (= a_30 (seq.update a1 i5 (seq.unit e5))))
(assert (= a_31 (seq.update a_30 i4 (seq.unit e4))))
(assert (= a_32 (seq.update a_31 i19 (seq.unit e19))))
(assert (= a_33 (seq.update a_32 i25 (seq.unit e25))))
(assert (= a_34 (seq.update a_33 i2 (seq.unit e2))))
(assert (= a_35 (seq.update a_34 i26 (seq.unit e26))))
(assert (= a_36 (seq.update a_35 i17 (seq.unit e17))))
(assert (= a_37 (seq.update a_36 i28 (seq.unit e28))))
(assert (= a_38 (seq.update a_37 i22 (seq.unit e22))))
(assert (= a_39 (seq.update a_38 i11 (seq.unit e11))))
(assert (= a_4 (seq.update a_3 i5 (seq.unit e5))))
(assert (= a_40 (seq.update a_39 i9 (seq.unit e9))))
(assert (= a_41 (seq.update a_40 i13 (seq.unit e13))))
(assert (= a_42 (seq.update a_41 i29 (seq.unit e29))))
(assert (= a_43 (seq.update a_42 i18 (seq.unit e18))))
(assert (= a_44 (seq.update a_43 i27 (seq.unit e27))))
(assert (= a_45 (seq.update a_44 i16 (seq.unit e16))))
(assert (= a_46 (seq.update a_45 i24 (seq.unit e24))))
(assert (= a_47 (seq.update a_46 i3 (seq.unit e3))))
(assert (= a_48 (seq.update a_47 i7 (seq.unit e7))))
(assert (= a_49 (seq.update a_48 i12 (seq.unit e12))))
(assert (= a_5 (seq.update a_4 i6 (seq.unit e6))))
(assert (= a_50 (seq.update a_49 i14 (seq.unit e14))))
(assert (= a_51 (seq.update a_50 i10 (seq.unit e10))))
(assert (= a_52 (seq.update a_51 i15 (seq.unit e15))))
(assert (= a_53 (seq.update a_52 i8 (seq.unit e8))))
(assert (= a_54 (seq.update a_53 i6 (seq.unit e6))))
(assert (= a_55 (seq.update a_54 i30 (seq.unit e30))))
(assert (= a_56 (seq.update a_55 i21 (seq.unit e21))))
(assert (= a_57 (seq.update a_56 i20 (seq.unit e20))))
(assert (= a_58 (seq.update a_57 i23 (seq.unit e23))))
(assert (= a_59 (seq.update a_58 i1 (seq.unit e1))))
(assert (= a_6 (seq.update a_5 i7 (seq.unit e7))))
(assert (= a_7 (seq.update a_6 i8 (seq.unit e8))))
(assert (= a_8 (seq.update a_7 i9 (seq.unit e9))))
(assert (= a_9 (seq.update a_8 i10 (seq.unit e10))))
(assert (not (= i29 i30)))
(assert (not (= i28 i30)))
(assert (not (= i28 i29)))
(assert (not (= i27 i30)))
(assert (not (= i27 i29)))
(assert (not (= i27 i28)))
(assert (not (= i26 i30)))
(assert (not (= i26 i29)))
(assert (not (= i26 i28)))
(assert (not (= i26 i27)))
(assert (not (= i25 i30)))
(assert (not (= i25 i29)))
(assert (not (= i25 i28)))
(assert (not (= i25 i27)))
(assert (not (= i25 i26)))
(assert (not (= i24 i30)))
(assert (not (= i24 i29)))
(assert (not (= i24 i28)))
(assert (not (= i24 i27)))
(assert (not (= i24 i26)))
(assert (not (= i24 i25)))
(assert (not (= i23 i30)))
(assert (not (= i23 i29)))
(assert (not (= i23 i28)))
(assert (not (= i23 i27)))
(assert (not (= i23 i26)))
(assert (not (= i23 i25)))
(assert (not (= i23 i24)))
(assert (not (= i22 i30)))
(assert (not (= i22 i29)))
(assert (not (= i22 i28)))
(assert (not (= i22 i27)))
(assert (not (= i22 i26)))
(assert (not (= i22 i25)))
(assert (not (= i22 i24)))
(assert (not (= i22 i23)))
(assert (not (= i21 i30)))
(assert (not (= i21 i29)))
(assert (not (= i21 i28)))
(assert (not (= i21 i27)))
(assert (not (= i21 i26)))
(assert (not (= i21 i25)))
(assert (not (= i21 i24)))
(assert (not (= i21 i23)))
(assert (not (= i21 i22)))
(assert (not (= i20 i30)))
(assert (not (= i20 i29)))
(assert (not (= i20 i28)))
(assert (not (= i20 i27)))
(assert (not (= i20 i26)))
(assert (not (= i20 i25)))
(assert (not (= i20 i24)))
(assert (not (= i20 i23)))
(assert (not (= i20 i22)))
(assert (not (= i20 i21)))
(assert (not (= i19 i30)))
(assert (not (= i19 i29)))
(assert (not (= i19 i28)))
(assert (not (= i19 i27)))
(assert (not (= i19 i26)))
(assert (not (= i19 i25)))
(assert (not (= i19 i24)))
(assert (not (= i19 i23)))
(assert (not (= i19 i22)))
(assert (not (= i19 i21)))
(assert (not (= i19 i20)))
(assert (not (= i18 i30)))
(assert (not (= i18 i29)))
(assert (not (= i18 i28)))
(assert (not (= i18 i27)))
(assert (not (= i18 i26)))
(assert (not (= i18 i25)))
(assert (not (= i18 i24)))
(assert (not (= i18 i23)))
(assert (not (= i18 i22)))
(assert (not (= i18 i21)))
(assert (not (= i18 i20)))
(assert (not (= i18 i19)))
(assert (not (= i17 i30)))
(assert (not (= i17 i29)))
(assert (not (= i17 i28)))
(assert (not (= i17 i27)))
(assert (not (= i17 i26)))
(assert (not (= i17 i25)))
(assert (not (= i17 i24)))
(assert (not (= i17 i23)))
(assert (not (= i17 i22)))
(assert (not (= i17 i21)))
(assert (not (= i17 i20)))
(assert (not (= i17 i19)))
(assert (not (= i17 i18)))
(assert (not (= i16 i30)))
(assert (not (= i16 i29)))
(assert (not (= i16 i28)))
(assert (not (= i16 i27)))
(assert (not (= i16 i26)))
(assert (not (= i16 i25)))
(assert (not (= i16 i24)))
(assert (not (= i16 i23)))
(assert (not (= i16 i22)))
(assert (not (= i16 i21)))
(assert (not (= i16 i20)))
(assert (not (= i16 i19)))
(assert (not (= i16 i18)))
(assert (not (= i16 i17)))
(assert (not (= i15 i30)))
(assert (not (= i15 i29)))
(assert (not (= i15 i28)))
(assert (not (= i15 i27)))
(assert (not (= i15 i26)))
(assert (not (= i15 i25)))
(assert (not (= i15 i24)))
(assert (not (= i15 i23)))
(assert (not (= i15 i22)))
(assert (not (= i15 i21)))
(assert (not (= i15 i20)))
(assert (not (= i15 i19)))
(assert (not (= i15 i18)))
(assert (not (= i15 i17)))
(assert (not (= i15 i16)))
(assert (not (= i14 i30)))
(assert (not (= i14 i29)))
(assert (not (= i14 i28)))
(assert (not (= i14 i27)))
(assert (not (= i14 i26)))
(assert (not (= i14 i25)))
(assert (not (= i14 i24)))
(assert (not (= i14 i23)))
(assert (not (= i14 i22)))
(assert (not (= i14 i21)))
(assert (not (= i14 i20)))
(assert (not (= i14 i19)))
(assert (not (= i14 i18)))
(assert (not (= i14 i17)))
(assert (not (= i14 i16)))
(assert (not (= i14 i15)))
(assert (not (= i13 i30)))
(assert (not (= i13 i29)))
(assert (not (= i13 i28)))
(assert (not (= i13 i27)))
(assert (not (= i13 i26)))
(assert (not (= i13 i25)))
(assert (not (= i13 i24)))
(assert (not (= i13 i23)))
(assert (not (= i13 i22)))
(assert (not (= i13 i21)))
(assert (not (= i13 i20)))
(assert (not (= i13 i19)))
(assert (not (= i13 i18)))
(assert (not (= i13 i17)))
(assert (not (= i13 i16)))
(assert (not (= i13 i15)))
(assert (not (= i13 i14)))
(assert (not (= i12 i30)))
(assert (not (= i12 i29)))
(assert (not (= i12 i28)))
(assert (not (= i12 i27)))
(assert (not (= i12 i26)))
(assert (not (= i12 i25)))
(assert (not (= i12 i24)))
(assert (not (= i12 i23)))
(assert (not (= i12 i22)))
(assert (not (= i12 i21)))
(assert (not (= i12 i20)))
(assert (not (= i12 i19)))
(assert (not (= i12 i18)))
(assert (not (= i12 i17)))
(assert (not (= i12 i16)))
(assert (not (= i12 i15)))
(assert (not (= i12 i14)))
(assert (not (= i12 i13)))
(assert (not (= i11 i30)))
(assert (not (= i11 i29)))
(assert (not (= i11 i28)))
(assert (not (= i11 i27)))
(assert (not (= i11 i26)))
(assert (not (= i11 i25)))
(assert (not (= i11 i24)))
(assert (not (= i11 i23)))
(assert (not (= i11 i22)))
(assert (not (= i11 i21)))
(assert (not (= i11 i20)))
(assert (not (= i11 i19)))
(assert (not (= i11 i18)))
(assert (not (= i11 i17)))
(assert (not (= i11 i16)))
(assert (not (= i11 i15)))
(assert (not (= i11 i14)))
(assert (not (= i11 i13)))
(assert (not (= i11 i12)))
(assert (not (= i10 i30)))
(assert (not (= i10 i29)))
(assert (not (= i10 i28)))
(assert (not (= i10 i27)))
(assert (not (= i10 i26)))
(assert (not (= i10 i25)))
(assert (not (= i10 i24)))
(assert (not (= i10 i23)))
(assert (not (= i10 i22)))
(assert (not (= i10 i21)))
(assert (not (= i10 i20)))
(assert (not (= i10 i19)))
(assert (not (= i10 i18)))
(assert (not (= i10 i17)))
(assert (not (= i10 i16)))
(assert (not (= i10 i15)))
(assert (not (= i10 i14)))
(assert (not (= i10 i13)))
(assert (not (= i10 i12)))
(assert (not (= i10 i11)))
(assert (not (= i9 i30)))
(assert (not (= i9 i29)))
(assert (not (= i9 i28)))
(assert (not (= i9 i27)))
(assert (not (= i9 i26)))
(assert (not (= i9 i25)))
(assert (not (= i9 i24)))
(assert (not (= i9 i23)))
(assert (not (= i9 i22)))
(assert (not (= i9 i21)))
(assert (not (= i9 i20)))
(assert (not (= i9 i19)))
(assert (not (= i9 i18)))
(assert (not (= i9 i17)))
(assert (not (= i9 i16)))
(assert (not (= i9 i15)))
(assert (not (= i9 i14)))
(assert (not (= i9 i13)))
(assert (not (= i9 i12)))
(assert (not (= i9 i11)))
(assert (not (= i9 i10)))
(assert (not (= i8 i30)))
(assert (not (= i8 i29)))
(assert (not (= i8 i28)))
(assert (not (= i8 i27)))
(assert (not (= i8 i26)))
(assert (not (= i8 i25)))
(assert (not (= i8 i24)))
(assert (not (= i8 i23)))
(assert (not (= i8 i22)))
(assert (not (= i8 i21)))
(assert (not (= i8 i20)))
(assert (not (= i8 i19)))
(assert (not (= i8 i18)))
(assert (not (= i8 i17)))
(assert (not (= i8 i16)))
(assert (not (= i8 i15)))
(assert (not (= i8 i14)))
(assert (not (= i8 i13)))
(assert (not (= i8 i12)))
(assert (not (= i8 i11)))
(assert (not (= i8 i10)))
(assert (not (= i8 i9)))
(assert (not (= i7 i30)))
(assert (not (= i7 i29)))
(assert (not (= i7 i28)))
(assert (not (= i7 i27)))
(assert (not (= i7 i26)))
(assert (not (= i7 i25)))
(assert (not (= i7 i24)))
(assert (not (= i7 i23)))
(assert (not (= i7 i22)))
(assert (not (= i7 i21)))
(assert (not (= i7 i20)))
(assert (not (= i7 i19)))
(assert (not (= i7 i18)))
(assert (not (= i7 i17)))
(assert (not (= i7 i16)))
(assert (not (= i7 i15)))
(assert (not (= i7 i14)))
(assert (not (= i7 i13)))
(assert (not (= i7 i12)))
(assert (not (= i7 i11)))
(assert (not (= i7 i10)))
(assert (not (= i7 i9)))
(assert (not (= i7 i8)))
(assert (not (= i6 i30)))
(assert (not (= i6 i29)))
(assert (not (= i6 i28)))
(assert (not (= i6 i27)))
(assert (not (= i6 i26)))
(assert (not (= i6 i25)))
(assert (not (= i6 i24)))
(assert (not (= i6 i23)))
(assert (not (= i6 i22)))
(assert (not (= i6 i21)))
(assert (not (= i6 i20)))
(assert (not (= i6 i19)))
(assert (not (= i6 i18)))
(assert (not (= i6 i17)))
(assert (not (= i6 i16)))
(assert (not (= i6 i15)))
(assert (not (= i6 i14)))
(assert (not (= i6 i13)))
(assert (not (= i6 i12)))
(assert (not (= i6 i11)))
(assert (not (= i6 i10)))
(assert (not (= i6 i9)))
(assert (not (= i6 i8)))
(assert (not (= i6 i7)))
(assert (not (= i5 i30)))
(assert (not (= i5 i29)))
(assert (not (= i5 i28)))
(assert (not (= i5 i27)))
(assert (not (= i5 i26)))
(assert (not (= i5 i25)))
(assert (not (= i5 i24)))
(assert (not (= i5 i23)))
(assert (not (= i5 i22)))
(assert (not (= i5 i21)))
(assert (not (= i5 i20)))
(assert (not (= i5 i19)))
(assert (not (= i5 i18)))
(assert (not (= i5 i17)))
(assert (not (= i5 i16)))
(assert (not (= i5 i15)))
(assert (not (= i5 i14)))
(assert (not (= i5 i13)))
(assert (not (= i5 i12)))
(assert (not (= i5 i11)))
(assert (not (= i5 i10)))
(assert (not (= i5 i9)))
(assert (not (= i5 i8)))
(assert (not (= i5 i7)))
(assert (not (= i5 i6)))
(assert (not (= i4 i30)))
(assert (not (= i4 i29)))
(assert (not (= i4 i28)))
(assert (not (= i4 i27)))
(assert (not (= i4 i26)))
(assert (not (= i4 i25)))
(assert (not (= i4 i24)))
(assert (not (= i4 i23)))
(assert (not (= i4 i22)))
(assert (not (= i4 i21)))
(assert (not (= i4 i20)))
(assert (not (= i4 i19)))
(assert (not (= i4 i18)))
(assert (not (= i4 i17)))
(assert (not (= i4 i16)))
(assert (not (= i4 i15)))
(assert (not (= i4 i14)))
(assert (not (= i4 i13)))
(assert (not (= i4 i12)))
(assert (not (= i4 i11)))
(assert (not (= i4 i10)))
(assert (not (= i4 i9)))
(assert (not (= i4 i8)))
(assert (not (= i4 i7)))
(assert (not (= i4 i6)))
(assert (not (= i4 i5)))
(assert (not (= i3 i30)))
(assert (not (= i3 i29)))
(assert (not (= i3 i28)))
(assert (not (= i3 i27)))
(assert (not (= i3 i26)))
(assert (not (= i3 i25)))
(assert (not (= i3 i24)))
(assert (not (= i3 i23)))
(assert (not (= i3 i22)))
(assert (not (= i3 i21)))
(assert (not (= i3 i20)))
(assert (not (= i3 i19)))
(assert (not (= i3 i18)))
(assert (not (= i3 i17)))
(assert (not (= i3 i16)))
(assert (not (= i3 i15)))
(assert (not (= i3 i14)))
(assert (not (= i3 i13)))
(assert (not (= i3 i12)))
(assert (not (= i3 i11)))
(assert (not (= i3 i10)))
(assert (not (= i3 i9)))
(assert (not (= i3 i8)))
(assert (not (= i3 i7)))
(assert (not (= i3 i6)))
(assert (not (= i3 i5)))
(assert (not (= i3 i4)))
(assert (not (= i2 i30)))
(assert (not (= i2 i29)))
(assert (not (= i2 i28)))
(assert (not (= i2 i27)))
(assert (not (= i2 i26)))
(assert (not (= i2 i25)))
(assert (not (= i2 i24)))
(assert (not (= i2 i23)))
(assert (not (= i2 i22)))
(assert (not (= i2 i21)))
(assert (not (= i2 i20)))
(assert (not (= i2 i19)))
(assert (not (= i2 i18)))
(assert (not (= i2 i17)))
(assert (not (= i2 i16)))
(assert (not (= i2 i15)))
(assert (not (= i2 i14)))
(assert (not (= i2 i13)))
(assert (not (= i2 i12)))
(assert (not (= i2 i11)))
(assert (not (= i2 i10)))
(assert (not (= i2 i9)))
(assert (not (= i2 i8)))
(assert (not (= i2 i7)))
(assert (not (= i2 i6)))
(assert (not (= i2 i5)))
(assert (not (= i2 i4)))
(assert (not (= i2 i3)))
(assert (not (= i1 i30)))
(assert (not (= i1 i29)))
(assert (not (= i1 i28)))
(assert (not (= i1 i27)))
(assert (not (= i1 i26)))
(assert (not (= i1 i25)))
(assert (not (= i1 i24)))
(assert (not (= i1 i23)))
(assert (not (= i1 i22)))
(assert (not (= i1 i21)))
(assert (not (= i1 i20)))
(assert (not (= i1 i19)))
(assert (not (= i1 i18)))
(assert (not (= i1 i17)))
(assert (not (= i1 i16)))
(assert (not (= i1 i15)))
(assert (not (= i1 i14)))
(assert (not (= i1 i13)))
(assert (not (= i1 i12)))
(assert (not (= i1 i11)))
(assert (not (= i1 i10)))
(assert (not (= i1 i9)))
(assert (not (= i1 i8)))
(assert (not (= i1 i7)))
(assert (not (= i1 i6)))
(assert (not (= i1 i5)))
(assert (not (= i1 i4)))
(assert (not (= i1 i3)))
(assert (not (= i1 i2)))
(assert (not (= a_29 a_59)))
(check-sat)
(exit)
